p tw 307 4403
1 2
1 3
1 4
1 5
2 5
2 6
2 7
2 8
2 9
2 11
2 14
2 25
2 28
2 30
2 32
3 4
3 6
3 7
3 8
3 13
4 6
4 7
4 8
4 12
5 6
5 7
5 8
5 9
5 10
5 11
6 7
6 8
6 9
6 10
6 11
6 12
6 13
6 14
6 15
6 16
6 17
6 18
6 19
7 8
7 9
7 10
7 11
7 12
7 13
7 14
7 15
7 17
7 18
7 19
8 9
8 10
8 11
8 12
8 13
8 14
8 15
8 16
8 18
8 19
9 10
9 11
9 14
9 15
9 16
9 17
9 18
9 19
9 32
10 11
10 14
10 15
10 16
10 17
10 18
10 32
11 14
11 15
11 16
11 17
11 18
11 19
11 32
12 13
12 16
12 17
13 16
13 17
14 15
14 16
14 17
14 18
14 19
15 16
15 17
15 18
15 19
15 20
15 21
16 17
16 18
16 19
16 20
16 21
17 18
17 19
17 20
17 21
18 19
18 20
19 20
19 21
20 21
20 22
20 24
21 22
21 23
21 24
22 23
22 24
23 24
25 26
25 27
25 28
25 29
25 30
25 31
25 32
25 42
25 43
25 44
25 48
25 58
26 27
26 28
26 29
26 30
26 31
26 32
27 28
27 29
27 30
27 32
28 29
28 30
28 31
28 42
28 43
28 44
28 48
28 58
29 30
29 31
29 32
30 31
30 32
30 42
30 43
30 44
30 48
30 58
31 32
32 58
33 34
33 35
33 37
33 38
34 35
34 36
34 38
35 36
35 37
36 37
36 38
36 45
36 46
36 47
36 54
36 55
36 57
36 69
37 38
37 45
37 46
37 47
37 54
37 55
37 57
37 69
38 45
38 46
38 47
38 54
38 55
38 57
38 69
39 42
39 44
39 47
39 48
39 49
39 50
39 51
39 52
39 53
39 54
39 55
39 56
39 57
39 58
39 59
39 60
39 61
39 62
39 63
40 41
40 46
40 47
40 54
40 55
40 57
41 45
41 47
41 54
41 55
41 57
42 43
42 44
42 47
42 48
42 49
42 50
42 51
42 52
42 53
42 54
42 55
42 56
42 57
42 58
42 59
42 60
42 61
42 62
42 63
42 64
42 65
42 66
43 44
43 47
43 48
43 49
43 50
43 51
43 52
43 53
43 54
43 55
43 56
43 57
43 58
43 59
43 60
43 61
43 62
43 63
43 64
43 65
43 66
44 47
44 48
44 49
44 50
44 51
44 52
44 53
44 54
44 55
44 56
44 57
44 58
44 59
44 60
44 61
44 62
44 63
44 64
44 65
44 66
45 46
45 47
45 54
45 55
45 57
45 65
45 69
46 47
46 54
46 55
46 57
46 65
46 69
47 48
47 49
47 50
47 51
47 52
47 53
47 54
47 56
47 57
47 58
47 59
47 60
47 61
47 62
47 63
47 69
48 49
48 50
48 51
48 52
48 53
48 54
48 55
48 56
48 57
48 59
48 60
48 61
48 62
48 63
49 50
49 51
49 52
49 53
49 54
49 55
49 56
49 57
49 58
49 60
49 61
49 62
49 63
50 51
50 52
50 53
50 54
50 55
50 56
50 57
50 58
50 59
50 61
50 62
50 63
51 52
51 53
51 54
51 55
51 56
51 57
51 58
51 59
51 60
51 62
51 63
52 53
52 54
52 55
52 56
52 57
52 58
52 59
52 60
52 61
52 63
53 54
53 55
53 56
53 57
53 58
53 59
53 60
53 61
53 62
54 55
54 56
54 57
54 58
54 59
54 60
54 61
54 62
54 63
54 64
54 65
54 66
54 69
55 56
55 57
55 58
55 59
55 60
55 61
55 62
55 63
55 64
55 66
55 69
56 57
56 58
56 59
56 60
56 61
56 62
56 63
56 64
56 65
56 66
57 58
57 59
57 60
57 61
57 62
57 63
57 64
57 65
57 66
57 69
58 59
58 60
58 61
58 62
58 63
58 64
58 65
58 66
59 60
59 61
59 62
59 63
59 64
59 65
59 66
60 61
60 62
60 63
60 64
60 65
60 66
61 62
61 63
61 64
61 65
61 66
62 63
62 64
62 65
62 66
63 64
63 65
63 66
64 65
64 66
64 68
65 66
65 67
65 68
66 67
67 68
69 70
69 72
69 79
69 98
69 99
69 101
69 102
69 103
69 105
69 106
69 107
69 108
69 109
69 110
69 111
69 112
69 113
70 71
70 72
70 73
70 79
70 105
70 106
70 107
70 108
70 109
70 110
70 111
70 112
70 113
70 114
70 115
70 121
71 72
71 79
71 105
71 106
71 107
71 108
71 109
71 110
71 111
71 112
71 113
71 114
71 115
71 121
72 73
72 79
72 105
72 106
72 107
72 108
72 109
72 110
72 111
72 112
72 113
72 114
72 115
72 121
73 74
73 114
73 115
73 121
74 75
74 76
75 76
75 77
75 78
75 88
75 91
75 95
75 96
75 97
75 100
75 104
75 125
76 77
76 78
76 88
76 91
76 95
76 96
76 97
76 100
76 104
76 125
77 88
77 91
77 95
77 96
77 97
77 100
77 104
77 125
78 79
78 96
78 97
78 100
78 104
78 107
78 108
78 111
78 125
78 128
78 129
78 130
79 80
79 82
79 83
79 107
79 108
79 111
79 114
79 115
79 116
79 117
79 118
79 119
79 120
79 121
79 128
79 129
79 130
79 131
79 133
79 136
80 81
80 82
80 83
80 84
80 85
80 86
80 87
80 88
80 116
80 117
80 118
80 119
80 120
80 122
80 123
80 124
80 131
80 133
80 136
80 138
81 82
81 83
81 84
81 85
81 86
81 87
81 88
81 116
81 117
81 118
81 119
81 120
81 122
81 123
81 124
81 131
81 133
81 136
81 138
82 83
82 84
82 85
82 86
82 87
82 88
82 116
82 117
82 118
82 119
82 120
82 122
82 123
82 124
82 131
82 133
82 136
82 138
83 84
83 85
83 86
83 87
83 89
83 90
83 91
83 92
83 93
83 94
83 95
83 98
83 99
83 100
83 101
83 102
83 103
83 104
83 122
83 123
83 124
83 138
84 85
84 86
84 87
84 88
84 89
84 90
84 91
84 92
84 93
84 95
84 96
84 97
84 122
84 123
84 124
84 137
84 138
85 86
85 87
85 88
85 89
85 90
85 91
85 92
85 93
85 94
85 96
85 97
85 122
85 123
85 124
85 138
86 87
86 88
86 89
86 90
86 91
86 92
86 93
86 94
86 95
86 96
86 97
86 122
86 123
86 124
86 137
86 138
87 88
87 89
87 90
87 91
87 92
87 93
87 94
87 95
87 96
87 97
87 122
87 123
87 124
87 137
87 138
88 89
88 90
88 91
88 92
88 93
88 94
88 95
88 96
88 97
88 98
88 99
88 100
88 101
88 102
88 103
88 104
88 111
88 112
88 113
88 125
89 90
89 91
89 92
89 93
89 94
89 95
89 96
89 97
89 99
89 100
89 101
89 102
89 103
89 104
89 105
89 106
89 107
89 108
89 125
90 91
90 92
90 93
90 94
90 95
90 96
90 97
90 98
90 100
90 101
90 102
90 103
90 104
90 105
90 106
90 107
90 108
90 125
91 92
91 93
91 94
91 95
91 96
91 97
91 98
91 99
91 101
91 102
91 103
91 104
91 105
91 106
91 107
91 108
91 125
92 93
92 94
92 95
92 96
92 97
92 98
92 99
92 100
92 102
92 103
92 104
92 105
92 106
92 107
92 108
92 125
93 94
93 95
93 96
93 97
93 98
93 99
93 100
93 101
93 103
93 104
93 105
93 106
93 107
93 108
93 125
94 95
94 96
94 97
94 98
94 99
94 100
94 101
94 102
94 104
94 105
94 106
94 107
94 108
94 125
95 96
95 97
95 98
95 99
95 100
95 101
95 102
95 103
95 105
95 106
95 107
95 108
95 125
96 97
96 98
96 99
96 100
96 101
96 102
96 103
96 104
96 105
96 106
96 108
96 109
96 110
96 111
96 112
96 113
96 121
96 125
96 128
96 129
96 130
97 98
97 99
97 100
97 101
97 102
97 103
97 104
97 105
97 106
97 107
97 109
97 110
97 111
97 112
97 113
97 121
97 125
97 128
97 129
97 130
98 99
98 100
98 101
98 102
98 103
98 104
98 105
98 106
98 107
98 108
98 109
98 111
98 112
98 113
98 114
98 115
98 125
98 128
98 129
98 130
99 100
99 101
99 102
99 103
99 104
99 105
99 106
99 107
99 108
99 109
99 110
99 111
99 113
99 114
99 115
99 125
99 128
99 129
99 130
100 101
100 102
100 103
100 104
100 105
100 106
100 107
100 108
100 109
100 110
100 112
100 113
100 114
100 115
100 116
100 125
100 128
100 129
100 130
101 102
101 103
101 104
101 105
101 106
101 107
101 108
101 109
101 110
101 111
101 112
101 114
101 115
101 125
101 128
101 129
101 130
102 103
102 104
102 105
102 106
102 107
102 108
102 109
102 110
102 111
102 112
102 113
102 114
102 115
102 125
102 128
102 129
102 130
103 104
103 105
103 106
103 107
103 108
103 109
103 110
103 111
103 112
103 113
103 114
103 115
103 125
103 128
103 129
103 130
104 105
104 106
104 107
104 108
104 109
104 110
104 111
104 112
104 113
104 114
104 115
104 116
104 117
104 118
104 119
104 125
104 128
104 129
104 130
105 106
105 107
105 108
105 109
105 110
105 111
105 112
105 113
105 115
105 121
105 128
105 129
105 130
106 107
106 108
106 109
106 110
106 111
106 112
106 113
106 114
106 121
106 128
106 129
106 130
107 108
107 109
107 110
107 111
107 112
107 113
107 114
107 115
107 116
107 117
107 118
107 119
107 120
107 121
107 128
107 129
107 130
107 131
107 133
107 136
108 109
108 110
108 111
108 112
108 113
108 114
108 115
108 116
108 117
108 118
108 119
108 120
108 121
108 128
108 129
108 130
108 131
108 133
108 136
109 110
109 111
109 112
109 113
109 114
109 115
109 121
109 128
109 129
109 130
110 111
110 112
110 113
110 114
110 115
110 121
110 128
110 129
110 130
111 112
111 113
111 114
111 115
111 116
111 117
111 118
111 119
111 120
111 121
111 128
111 129
111 130
111 131
111 133
111 136
112 113
112 114
112 115
112 128
112 129
112 130
113 114
113 115
113 121
113 128
113 129
113 130
114 115
114 121
114 132
114 134
114 137
114 139
114 140
114 141
114 142
115 121
115 132
115 134
115 137
115 139
115 140
115 141
115 142
116 117
116 118
116 119
116 120
116 122
116 123
116 124
116 131
116 133
116 136
116 138
117 118
117 119
117 120
117 123
117 124
117 131
117 133
117 136
117 138
118 119
118 120
118 122
118 124
118 131
118 133
118 136
118 138
119 120
119 122
119 123
119 131
119 133
119 136
119 138
120 122
120 123
120 124
120 131
120 133
120 136
120 138
121 132
121 134
121 137
121 139
121 140
121 141
121 142
122 123
122 124
122 137
122 138
123 124
123 137
123 138
124 137
124 138
125 126
125 127
125 128
125 130
126 127
126 128
126 129
126 130
126 131
126 133
126 134
126 135
126 136
127 128
127 129
127 130
127 131
127 132
127 133
127 134
127 136
128 129
128 130
128 131
128 132
128 133
128 134
128 135
128 136
129 130
129 131
129 132
129 133
129 134
129 135
129 136
130 131
130 132
130 133
130 134
130 135
130 136
131 132
131 133
131 134
131 135
131 136
131 137
131 138
131 140
131 141
131 142
131 154
131 155
131 156
131 157
132 133
132 134
132 135
132 136
132 138
132 139
132 140
132 141
132 142
132 156
132 157
133 134
133 135
133 136
133 137
133 140
133 141
133 142
133 154
133 155
133 156
133 157
134 135
134 136
134 137
134 138
134 139
134 140
134 141
134 142
134 156
134 157
135 136
135 137
135 138
135 140
135 141
135 142
135 156
135 157
136 137
136 138
136 140
136 141
136 142
136 154
136 155
136 156
136 157
137 138
137 139
137 140
137 141
137 142
137 143
137 145
137 146
137 156
137 157
137 158
138 140
138 141
138 142
138 143
138 145
138 146
138 154
138 155
138 156
138 157
138 158
138 159
139 140
139 141
139 142
139 143
139 145
139 146
140 141
140 142
140 144
140 145
140 146
140 154
140 155
140 156
140 157
140 158
140 159
141 142
141 143
141 144
141 146
141 154
141 155
141 156
141 157
141 158
141 159
142 143
142 144
142 145
142 154
142 155
142 156
142 157
142 158
142 159
143 144
143 145
143 146
143 147
143 148
143 149
143 158
143 159
144 145
144 146
144 147
144 148
144 149
145 146
145 147
145 149
145 158
145 159
146 147
146 148
146 158
146 159
147 148
147 149
147 150
147 151
148 149
148 150
148 151
149 150
149 151
150 151
150 152
150 153
151 152
151 153
152 153
152 154
152 155
152 156
152 157
153 154
153 155
153 156
153 157
154 155
154 156
154 157
154 158
154 159
155 156
155 157
155 158
155 159
155 160
156 157
156 158
156 159
156 160
156 161
156 186
156 188
157 158
157 159
157 160
157 161
157 162
157 186
157 188
158 159
158 160
158 161
158 163
158 164
158 169
159 160
159 161
159 162
159 163
159 164
159 169
160 161
160 162
160 163
160 164
160 166
160 167
160 168
160 169
160 170
160 171
160 172
160 173
160 174
160 175
160 181
160 182
160 183
161 162
161 163
161 164
161 165
161 166
161 167
161 168
161 169
161 170
161 171
161 172
161 173
161 174
161 175
161 183
162 163
162 164
162 165
162 166
162 167
162 168
162 169
162 170
162 171
162 172
162 173
162 174
162 175
162 183
162 196
162 198
163 164
163 165
163 166
163 167
163 168
163 169
163 170
163 171
163 172
163 173
163 174
163 175
164 165
164 166
164 167
164 168
164 169
164 170
164 171
164 172
164 173
164 174
164 175
164 176
165 166
165 167
165 168
165 169
165 170
165 171
165 172
165 173
165 174
165 175
165 176
165 177
165 178
165 179
165 180
165 181
165 182
165 183
165 186
165 188
165 190
166 167
166 168
166 169
166 170
166 171
166 172
166 173
166 174
166 175
166 176
166 177
166 178
166 179
166 181
166 182
166 183
166 196
166 198
166 209
166 210
166 212
167 168
167 169
167 170
167 171
167 172
167 173
167 174
167 175
167 176
167 177
167 178
167 179
167 180
167 181
167 183
167 196
167 198
167 209
167 210
167 212
168 169
168 170
168 171
168 172
168 173
168 174
168 175
168 176
168 177
168 178
168 179
168 180
168 181
168 182
168 183
168 196
168 198
168 209
168 210
168 212
169 170
169 171
169 172
169 173
169 174
169 175
169 176
169 177
169 178
169 179
169 180
169 181
169 182
169 184
169 196
169 198
169 209
169 210
169 212
170 171
170 172
170 173
170 174
170 175
170 176
170 177
170 178
170 179
170 180
170 181
170 182
170 183
171 172
171 173
171 174
171 175
171 176
171 177
171 178
171 179
171 180
171 181
171 182
171 183
171 196
171 198
171 209
171 210
171 212
172 173
172 174
172 175
172 176
172 177
172 178
172 179
172 180
172 181
172 182
172 183
172 196
172 198
172 209
172 210
172 212
173 174
173 175
173 176
173 177
173 178
173 179
173 180
173 181
173 182
173 183
173 196
173 198
173 209
173 210
173 212
174 175
174 176
174 177
174 178
174 179
174 180
174 181
174 182
174 183
175 176
175 177
175 178
175 179
175 180
175 181
175 182
175 183
176 177
176 178
176 179
176 180
176 181
176 182
176 183
176 185
176 186
176 187
176 188
176 189
176 190
177 178
177 179
177 180
177 181
177 182
177 183
177 184
177 186
177 187
177 188
177 189
177 190
177 209
177 210
177 212
177 214
177 215
177 216
178 179
178 180
178 181
178 182
178 183
178 184
178 185
178 186
178 188
178 189
178 190
178 209
178 210
178 212
178 214
178 215
178 216
179 180
179 181
179 182
179 183
179 184
179 185
179 186
179 187
179 188
179 189
179 190
180 181
180 182
180 183
180 184
180 185
180 186
180 187
180 188
180 190
180 209
180 210
180 212
180 214
180 215
180 216
181 182
181 183
181 184
181 185
181 186
181 187
181 188
181 189
181 190
182 183
182 184
182 185
182 186
182 187
182 188
182 189
182 209
182 210
182 212
182 214
182 215
182 216
183 184
183 185
183 186
183 187
183 188
183 189
183 190
183 209
183 210
183 212
183 214
183 215
183 216
184 185
184 186
184 187
184 188
184 189
184 190
185 186
185 187
185 188
185 189
185 190
185 214
185 215
185 216
185 217
185 218
185 219
186 187
186 188
186 189
186 190
186 214
186 215
186 216
186 217
186 218
186 219
187 188
187 189
187 190
187 214
187 215
187 216
187 217
187 218
187 219
188 189
188 190
188 214
188 215
188 216
188 217
188 218
188 219
189 190
189 214
189 215
189 216
189 217
189 218
189 219
190 214
190 215
190 216
190 217
190 218
190 219
191 192
191 193
191 194
191 195
191 196
191 197
191 198
191 199
191 200
191 201
191 202
191 203
191 205
191 206
191 207
191 208
191 209
191 210
191 211
191 212
191 213
191 214
191 233
191 234
191 235
191 236
191 237
191 238
191 239
191 240
191 241
191 243
191 244
191 245
191 248
191 249
191 250
191 277
191 278
191 279
191 280
191 281
191 282
191 283
191 284
191 285
191 286
191 287
191 288
191 289
191 290
191 291
191 292
191 293
191 294
192 193
192 194
192 195
192 196
192 197
192 198
192 199
192 200
192 201
192 202
192 204
192 205
192 206
192 207
192 208
192 209
192 210
192 211
192 212
192 213
192 214
192 233
192 234
192 235
192 236
192 237
192 238
192 239
192 240
192 241
192 243
192 244
192 245
192 248
192 249
192 250
192 277
192 278
192 279
192 280
192 281
192 282
192 283
192 284
192 285
192 286
192 287
192 288
192 289
192 290
192 291
192 292
192 293
192 294
193 194
193 195
193 196
193 197
193 198
193 199
193 200
193 201
193 202
193 203
193 204
193 205
193 206
193 208
193 209
193 210
193 211
193 212
193 213
193 214
193 215
193 233
193 234
193 235
193 236
193 237
193 238
193 239
193 240
193 241
193 243
193 244
193 245
193 248
193 249
193 250
193 277
193 278
193 279
193 280
193 281
193 282
193 283
193 284
193 285
193 286
193 287
193 288
193 289
193 290
193 291
193 292
193 293
193 294
194 195
194 196
194 197
194 198
194 199
194 200
194 201
194 202
194 203
194 204
194 205
194 207
194 208
194 209
194 210
194 211
194 212
194 213
194 214
194 215
194 233
194 234
194 235
194 236
194 237
194 238
194 239
194 240
194 241
194 243
194 244
194 245
194 248
194 249
194 250
194 277
194 278
194 279
194 280
194 281
194 282
194 283
194 284
194 285
194 286
194 287
194 288
194 289
194 290
194 291
194 292
194 293
194 294
195 196
195 197
195 198
195 199
195 200
195 201
195 202
195 203
195 204
195 205
195 206
195 207
195 208
195 209
195 210
195 212
195 213
195 214
195 233
195 234
195 235
195 236
195 237
195 238
195 239
195 240
195 241
195 243
195 244
195 245
195 248
195 249
195 250
195 277
195 278
195 279
195 280
195 281
195 282
195 283
195 284
195 285
195 286
195 287
195 288
195 289
195 290
195 291
195 292
195 293
195 294
196 197
196 198
196 199
196 200
196 201
196 202
196 203
196 204
196 205
196 206
196 207
196 208
196 209
196 211
196 212
196 213
196 214
196 233
196 234
196 235
196 236
196 237
196 238
196 239
196 240
196 241
196 243
196 244
196 245
196 248
196 249
196 250
196 277
196 278
196 279
196 280
196 281
196 282
196 283
196 284
196 285
196 286
196 287
196 288
196 289
196 290
196 291
196 292
196 293
196 294
197 198
197 199
197 200
197 201
197 202
197 203
197 204
197 205
197 206
197 207
197 208
197 209
197 210
197 211
197 212
197 214
197 215
197 233
197 234
197 235
197 236
197 237
197 238
197 239
197 240
197 241
197 243
197 244
197 245
197 248
197 249
197 250
197 277
197 278
197 279
197 280
197 281
197 282
197 283
197 284
197 285
197 286
197 287
197 288
197 289
197 290
197 291
197 292
197 293
197 294
198 199
198 200
198 201
198 202
198 203
198 204
198 205
198 206
198 207
198 208
198 209
198 210
198 211
198 213
198 214
198 215
198 233
198 234
198 235
198 236
198 237
198 238
198 239
198 240
198 241
198 243
198 244
198 245
198 248
198 249
198 250
198 277
198 278
198 279
198 280
198 281
198 282
198 283
198 284
198 285
198 286
198 287
198 288
198 289
198 290
198 291
198 292
198 293
198 294
199 200
199 201
199 202
199 203
199 204
199 205
199 206
199 207
199 208
199 209
199 210
199 211
199 212
199 213
199 214
199 215
199 216
199 243
199 244
199 245
199 248
199 249
199 250
199 285
199 286
199 287
199 288
199 289
199 290
199 291
199 292
199 293
199 294
199 295
199 296
199 297
199 298
200 201
200 202
200 203
200 204
200 205
200 206
200 207
200 208
200 209
200 210
200 211
200 212
200 213
200 214
200 215
200 216
200 243
200 244
200 245
200 248
200 249
200 250
200 285
200 286
200 287
200 288
200 289
200 290
200 291
200 292
200 293
200 294
200 295
200 296
200 297
200 298
201 202
201 203
201 204
201 205
201 206
201 207
201 208
201 209
201 210
201 211
201 212
201 213
201 214
201 215
201 216
201 220
201 243
201 244
201 245
201 248
201 249
201 250
201 285
201 286
201 287
201 288
201 289
201 290
201 291
201 292
201 293
201 294
201 295
201 296
201 297
201 298
202 203
202 204
202 205
202 206
202 207
202 208
202 209
202 210
202 211
202 212
202 213
202 214
202 215
202 216
202 243
202 244
202 245
202 248
202 249
202 250
202 285
202 286
202 287
202 288
202 289
202 290
202 291
202 292
202 293
202 294
202 295
202 296
202 297
202 298
203 204
203 205
203 206
203 207
203 208
203 209
203 210
203 211
203 212
203 213
203 214
203 215
203 216
203 217
203 220
203 221
203 222
203 243
203 244
203 245
203 248
203 249
203 250
203 285
203 286
203 287
203 288
203 289
203 290
203 291
203 292
203 293
203 294
203 295
203 296
203 297
203 298
204 205
204 206
204 207
204 208
204 209
204 210
204 211
204 212
204 213
204 214
204 215
204 216
204 217
204 220
204 221
204 222
204 243
204 244
204 245
204 248
204 249
204 250
204 285
204 286
204 287
204 288
204 289
204 290
204 291
204 292
204 293
204 294
204 295
204 296
204 297
204 298
205 206
205 207
205 208
205 209
205 210
205 211
205 212
205 213
205 214
205 215
205 216
205 243
205 244
205 245
205 248
205 249
205 250
205 285
205 286
205 287
205 288
205 289
205 290
205 291
205 292
205 293
205 294
205 295
205 296
205 297
205 298
206 207
206 208
206 209
206 210
206 211
206 212
206 213
206 214
206 215
206 216
206 217
206 218
206 220
206 221
206 222
206 223
206 243
206 244
206 245
206 248
206 249
206 250
206 285
206 286
206 287
206 288
206 289
206 290
206 291
206 292
206 293
206 294
206 295
206 296
206 297
206 298
207 208
207 209
207 210
207 211
207 212
207 213
207 214
207 215
207 216
207 217
207 218
207 220
207 221
207 222
207 223
207 243
207 244
207 245
207 248
207 249
207 250
207 285
207 286
207 287
207 288
207 289
207 290
207 291
207 292
207 293
207 294
207 295
207 296
207 297
207 298
208 209
208 210
208 211
208 212
208 213
208 214
208 215
208 216
208 220
208 243
208 244
208 245
208 248
208 249
208 250
208 285
208 286
208 287
208 288
208 289
208 290
208 291
208 292
208 293
208 294
208 295
208 296
208 297
208 298
209 210
209 211
209 212
209 213
209 214
209 215
209 216
209 220
209 243
209 244
209 245
209 248
209 249
209 250
209 251
209 252
209 253
209 254
209 255
209 256
209 285
209 286
209 287
209 288
209 289
209 290
209 291
209 292
209 293
209 294
209 295
209 296
209 297
209 298
210 211
210 212
210 213
210 214
210 215
210 216
210 217
210 220
210 221
210 222
210 243
210 244
210 245
210 248
210 249
210 250
210 251
210 252
210 253
210 254
210 255
210 256
210 285
210 286
210 287
210 288
210 289
210 290
210 291
210 292
210 293
210 294
210 295
210 296
210 297
210 298
211 212
211 213
211 214
211 215
211 216
211 217
211 220
211 221
211 222
211 243
211 244
211 245
211 248
211 249
211 250
211 285
211 286
211 287
211 288
211 289
211 290
211 291
211 292
211 293
211 294
211 295
211 296
211 297
211 298
212 213
212 214
212 215
212 216
212 217
212 218
212 220
212 221
212 222
212 223
212 243
212 244
212 245
212 248
212 249
212 250
212 251
212 252
212 253
212 254
212 255
212 256
212 285
212 286
212 287
212 288
212 289
212 290
212 291
212 292
212 293
212 294
212 295
212 296
212 297
212 298
213 214
213 215
213 216
213 217
213 218
213 220
213 221
213 222
213 223
213 243
213 244
213 245
213 248
213 249
213 250
213 285
213 286
213 287
213 288
213 289
213 290
213 291
213 292
213 293
213 294
213 295
213 296
213 297
213 298
214 215
214 216
214 218
214 219
214 220
214 221
214 222
214 223
214 224
214 251
214 252
214 253
214 254
214 255
214 256
214 258
214 259
214 260
214 261
214 263
214 264
214 265
214 266
214 267
214 268
214 295
214 296
214 297
214 298
214 299
214 300
215 216
215 217
215 219
215 220
215 221
215 222
215 223
215 224
215 251
215 252
215 253
215 254
215 255
215 256
215 258
215 259
215 260
215 261
215 263
215 264
215 265
215 266
215 267
215 268
215 295
215 296
215 297
215 298
215 299
215 300
216 217
216 218
216 220
216 221
216 222
216 223
216 224
216 251
216 252
216 253
216 254
216 255
216 256
216 258
216 259
216 260
216 261
216 263
216 264
216 265
216 266
216 267
216 268
216 295
216 296
216 297
216 298
216 299
216 300
217 218
217 219
217 220
217 221
217 222
217 223
217 224
217 225
217 227
217 228
217 229
217 230
217 231
217 232
217 259
217 260
217 261
217 263
217 264
217 265
217 266
217 267
217 268
217 269
217 270
217 271
217 272
217 275
217 276
217 299
217 300
217 301
218 219
218 220
218 221
218 222
218 223
218 224
218 225
218 226
218 228
218 229
218 230
218 231
218 232
218 259
218 260
218 261
218 263
218 264
218 265
218 266
218 267
218 268
218 269
218 270
218 271
218 272
218 275
218 276
218 299
218 300
218 301
219 220
219 221
219 222
219 223
219 224
219 225
219 226
219 227
219 229
219 230
219 231
219 232
219 259
219 260
219 261
219 263
219 264
219 265
219 266
219 267
219 268
219 269
219 270
219 271
219 272
219 275
219 276
219 299
219 300
219 301
220 221
220 222
220 223
220 224
220 225
220 226
220 227
220 228
220 230
220 231
220 232
220 265
220 267
220 268
220 299
220 300
220 301
221 222
221 223
221 224
221 225
221 226
221 227
221 228
221 229
221 230
221 231
221 232
221 265
221 267
221 268
221 299
221 300
221 301
222 223
222 224
222 225
222 226
222 227
222 228
222 229
222 231
222 232
222 265
222 267
222 268
222 299
222 300
222 301
223 224
223 225
223 226
223 227
223 228
223 229
223 230
223 231
223 232
223 265
223 267
223 268
223 299
223 300
223 301
224 225
224 226
224 227
224 228
224 229
224 230
224 231
224 232
224 265
224 267
224 268
224 299
224 300
224 301
225 226
225 227
225 228
225 229
225 230
225 231
225 232
225 234
225 235
225 236
225 237
225 238
225 239
225 240
225 241
225 242
225 269
225 270
225 271
225 272
225 275
225 276
225 278
225 280
225 282
225 301
226 227
226 228
226 229
226 230
226 231
226 232
226 233
226 235
226 236
226 237
226 238
226 239
226 240
226 241
226 242
226 243
226 269
226 270
226 271
226 272
226 275
226 276
226 278
226 280
226 282
226 301
227 228
227 229
227 230
227 231
227 232
227 233
227 234
227 236
227 237
227 238
227 239
227 240
227 241
227 242
227 243
227 244
227 245
227 269
227 270
227 271
227 272
227 275
227 276
227 278
227 280
227 282
227 301
228 229
228 230
228 231
228 232
228 233
228 234
228 235
228 236
228 238
228 239
228 240
228 241
228 242
228 243
228 244
228 245
228 269
228 270
228 271
228 272
228 275
228 276
228 278
228 280
228 282
228 301
229 230
229 231
229 232
229 233
229 234
229 235
229 236
229 237
229 238
229 240
229 241
229 242
230 231
230 232
230 233
230 234
230 235
230 236
230 237
230 238
230 240
230 241
230 242
230 243
230 244
230 245
231 232
231 233
231 234
231 235
231 236
231 237
231 238
231 240
231 241
231 242
231 243
231 244
231 245
231 269
231 270
231 271
231 272
231 301
232 233
232 234
232 235
232 236
232 237
232 238
232 240
232 241
232 243
232 244
232 245
232 269
232 270
232 271
232 272
232 301
233 234
233 235
233 236
233 237
233 238
233 239
233 240
233 241
233 242
233 243
233 244
233 245
233 246
233 247
233 248
233 250
233 277
233 278
233 279
233 280
233 281
233 282
233 283
233 284
233 285
233 286
233 287
233 288
233 289
233 290
233 291
233 292
233 293
233 294
234 235
234 236
234 237
234 238
234 239
234 240
234 241
234 242
234 243
234 244
234 245
234 246
234 247
234 248
234 249
234 253
234 277
234 278
234 279
234 280
234 281
234 282
234 283
234 284
234 285
234 286
234 287
234 288
234 289
234 290
234 291
234 292
234 293
234 294
235 236
235 237
235 238
235 239
235 240
235 241
235 242
235 243
235 244
235 245
235 246
235 247
235 248
235 249
235 250
235 253
235 254
235 255
235 256
235 277
235 278
235 279
235 280
235 281
235 282
235 283
235 284
235 285
235 286
235 287
235 288
235 289
235 290
235 291
235 292
235 293
235 294
236 237
236 238
236 239
236 240
236 241
236 242
236 243
236 244
236 245
236 246
236 247
236 248
236 249
236 250
236 277
236 278
236 279
236 280
236 281
236 282
236 283
236 284
236 285
236 286
236 287
236 288
236 289
236 290
236 291
236 292
236 293
236 294
237 238
237 239
237 240
237 241
237 242
237 243
237 244
237 245
237 246
237 247
237 248
237 249
237 250
237 253
237 254
237 255
237 256
237 277
237 278
237 279
237 280
237 281
237 282
237 283
237 284
237 285
237 286
237 287
237 288
237 289
237 290
237 291
237 292
237 293
237 294
238 239
238 240
238 241
238 242
238 243
238 244
238 245
238 246
238 247
238 248
238 249
238 250
238 253
238 277
238 278
238 279
238 280
238 281
238 282
238 283
238 284
238 285
238 286
238 287
238 288
238 289
238 290
238 291
238 292
238 293
238 294
239 240
239 241
239 243
239 244
239 245
239 248
239 249
239 250
239 251
239 253
239 254
239 255
239 256
239 277
239 278
239 279
239 280
239 281
239 282
239 283
239 284
239 285
239 286
239 287
239 288
239 289
239 290
239 291
239 292
239 293
239 294
240 241
240 242
240 243
240 244
240 245
240 246
240 247
240 248
240 249
240 250
240 251
240 252
240 253
240 254
240 255
240 256
240 257
240 277
240 278
240 279
240 280
240 281
240 282
240 283
240 284
240 285
240 286
240 287
240 288
240 289
240 290
240 291
240 292
240 293
240 294
241 242
241 243
241 244
241 245
241 246
241 247
241 248
241 249
241 250
241 251
241 252
241 253
241 254
241 255
241 256
241 257
241 277
241 278
241 279
241 280
241 281
241 282
241 283
241 284
241 285
241 286
241 287
241 288
241 289
241 290
241 291
241 292
241 293
241 294
242 243
242 244
242 245
242 246
242 247
242 248
242 249
242 250
242 251
242 252
242 253
242 254
242 255
242 256
242 257
243 244
243 245
243 246
243 247
243 248
243 249
243 250
243 251
243 252
243 254
243 255
243 256
243 257
243 258
243 263
243 264
243 266
243 285
243 286
243 287
243 288
243 289
243 290
243 291
243 292
243 293
243 294
243 295
243 296
243 297
243 298
244 245
244 246
244 247
244 248
244 249
244 250
244 251
244 252
244 253
244 255
244 256
244 257
244 258
244 263
244 264
244 266
244 285
244 286
244 287
244 288
244 289
244 290
244 291
244 292
244 293
244 294
244 295
244 296
244 297
244 298
245 246
245 247
245 248
245 249
245 250
245 251
245 252
245 253
245 254
245 256
245 257
245 258
245 263
245 264
245 266
245 285
245 286
245 287
245 288
245 289
245 290
245 291
245 292
245 293
245 294
245 295
245 296
245 297
245 298
246 247
246 248
246 249
246 250
246 251
246 252
246 253
246 254
246 255
246 256
246 257
246 258
247 248
247 249
247 250
247 251
247 252
247 253
247 254
247 255
247 256
247 257
247 258
247 259
248 249
248 250
248 251
248 252
248 253
248 254
248 255
248 256
248 257
248 258
248 285
248 286
248 287
248 288
248 289
248 290
248 291
248 292
248 293
248 294
248 295
248 296
248 297
248 298
249 250
249 251
249 252
249 253
249 254
249 255
249 256
249 257
249 258
249 285
249 286
249 287
249 288
249 289
249 290
249 291
249 292
249 293
249 294
249 295
249 296
249 297
249 298
250 251
250 252
250 253
250 254
250 255
250 256
250 257
250 258
250 285
250 286
250 287
250 288
250 289
250 290
250 291
250 292
250 293
250 294
250 295
250 296
250 297
250 298
251 252
251 253
251 254
251 255
251 256
251 257
251 258
251 260
251 261
251 262
251 263
251 264
251 265
251 266
251 267
251 268
251 295
251 296
251 297
251 298
251 299
251 300
252 253
252 254
252 255
252 256
252 257
252 258
252 259
252 261
252 262
252 263
252 264
252 265
252 266
252 267
252 268
252 295
252 296
252 297
252 298
252 299
252 300
253 254
253 255
253 256
253 257
253 258
253 259
253 260
253 261
253 262
253 263
253 264
253 265
253 266
253 267
253 268
253 270
253 273
253 274
253 275
253 276
253 295
253 296
253 297
253 298
253 299
253 300
254 255
254 256
254 257
254 258
254 259
254 260
254 261
254 262
254 263
254 264
254 265
254 266
254 267
254 268
254 270
254 273
254 274
254 275
254 276
254 295
254 296
254 297
254 298
254 299
254 300
255 256
255 257
255 258
255 259
255 260
255 261
255 262
255 263
255 264
255 265
255 266
255 267
255 268
255 270
255 273
255 274
255 275
255 276
255 295
255 296
255 297
255 298
255 299
255 300
256 257
256 258
256 259
256 260
256 261
256 262
256 263
256 264
256 265
256 266
256 267
256 268
256 270
256 274
256 276
256 295
256 296
256 297
256 298
256 299
256 300
257 258
257 259
257 260
257 261
257 263
257 264
257 265
257 266
257 267
257 268
258 259
258 260
258 261
258 262
258 264
258 265
258 266
258 267
258 268
258 295
258 296
258 297
258 298
258 299
258 300
258 302
259 260
259 261
259 262
259 263
259 264
259 265
259 266
259 267
259 268
259 270
259 271
259 272
259 273
259 274
259 275
259 276
259 299
259 300
259 301
260 261
260 262
260 263
260 264
260 265
260 266
260 267
260 268
260 269
260 270
260 272
260 273
260 274
260 275
260 276
260 299
260 300
260 301
261 262
261 263
261 264
261 265
261 266
261 267
261 268
261 269
261 270
261 271
261 273
261 274
261 275
261 276
261 299
261 300
261 301
262 263
262 264
262 265
262 266
262 267
262 268
262 269
262 270
262 271
262 272
262 273
262 274
262 275
262 276
263 264
263 265
263 266
263 267
263 268
263 269
263 270
263 271
263 272
263 273
263 274
263 276
263 299
263 300
263 301
263 302
263 303
263 304
264 265
264 266
264 267
264 268
264 269
264 270
264 271
264 272
264 273
264 274
264 275
264 299
264 300
264 301
264 302
264 303
264 304
265 266
265 267
265 268
265 269
265 270
265 271
265 272
265 273
265 274
265 275
265 276
265 299
265 300
265 301
265 302
265 303
265 304
266 267
266 268
266 269
266 270
266 271
266 272
266 273
266 274
266 275
266 276
266 277
266 299
266 300
266 301
266 302
266 303
266 304
267 268
267 269
267 270
267 271
267 272
267 273
267 274
267 275
267 276
267 299
267 300
267 301
267 302
267 303
267 304
268 269
268 270
268 271
268 272
268 273
268 274
268 275
268 276
268 299
268 300
268 301
268 302
268 303
268 304
269 270
269 271
269 272
269 273
269 274
269 275
269 276
269 277
269 278
269 279
269 280
269 281
269 282
269 283
269 284
269 288
269 301
270 271
270 272
270 273
270 274
270 275
270 276
270 277
270 278
270 279
270 280
270 281
270 282
270 283
270 284
270 301
271 272
271 273
271 274
271 275
271 276
271 277
271 278
271 279
271 280
271 281
271 282
271 283
271 284
271 301
272 273
272 274
272 275
272 276
272 277
272 278
272 279
272 280
272 281
272 282
272 283
272 284
272 301
273 274
273 275
273 276
273 277
273 278
273 279
273 280
273 281
273 282
273 283
273 284
274 275
274 276
274 277
274 278
274 279
274 280
274 281
274 282
274 283
274 284
275 276
275 277
275 278
275 279
275 280
275 281
275 282
275 283
275 284
275 301
275 303
275 304
275 305
276 277
276 278
276 279
276 280
276 281
276 282
276 283
276 284
276 301
276 303
276 304
276 305
277 278
277 279
277 280
277 281
277 282
277 283
277 284
277 285
277 286
277 287
277 288
277 289
277 290
277 291
277 292
277 293
277 294
278 279
278 280
278 281
278 282
278 283
278 284
278 285
278 286
278 288
278 289
278 290
278 291
278 292
278 293
278 294
279 280
279 281
279 282
279 283
279 284
279 285
279 286
279 287
279 288
279 289
279 290
279 291
279 292
279 293
279 294
280 281
280 282
280 283
280 284
280 285
280 286
280 287
280 288
280 290
280 291
280 292
280 293
280 294
281 282
281 283
281 284
281 285
281 286
281 287
281 288
281 289
281 290
281 291
281 292
281 293
281 294
282 283
282 284
282 285
282 286
282 287
282 288
282 289
282 290
282 291
282 293
282 294
283 284
283 285
283 286
283 287
283 288
283 289
283 290
283 291
283 292
283 294
284 285
284 286
284 287
284 288
284 289
284 290
284 291
284 292
284 293
285 286
285 287
285 288
285 289
285 290
285 291
285 292
285 293
285 294
285 295
285 296
285 297
285 298
286 287
286 288
286 289
286 290
286 291
286 292
286 293
286 294
286 295
286 296
286 298
287 288
287 289
287 290
287 291
287 292
287 293
287 294
287 295
287 296
287 297
287 298
288 289
288 290
288 291
288 292
288 293
288 294
288 295
288 296
288 297
288 298
289 290
289 291
289 292
289 293
289 294
289 295
289 296
289 297
289 298
290 291
290 292
290 293
290 294
290 295
290 296
290 297
290 298
291 292
291 293
291 294
291 295
291 296
291 297
292 293
292 294
292 295
292 296
292 297
292 298
293 294
293 295
293 296
293 297
293 298
294 295
294 296
294 297
294 298
295 296
295 297
295 298
295 300
295 302
296 297
296 298
296 299
296 302
297 298
297 299
297 300
297 302
298 299
298 300
298 302
299 300
299 301
299 302
299 303
299 304
300 302
300 303
300 304
301 303
301 304
301 305
302 303
303 304
303 305
305 306
305 307
306 307
